Version identifier: 20.1.0.0 | 2020-11-10 | 9bedb6d68
Tried aggregator 2 times.
MIP Presolve eliminated 1702 rows and 924 columns.
MIP Presolve modified 3484 coefficients.
Aggregator did 195 substitutions.
Reduced MIP has 1509 rows, 1288 columns, and 4811 nonzeros.
Reduced MIP has 370 binaries, 918 generals, 0 SOSs, and 0 indicators.
Presolve time = 0.02 sec. (7.87 ticks)
Found incumbent of value 68.000000 after 0.03 sec. (13.46 ticks)
Probing fixed 40 vars, tightened 369 bounds.
Probing time = 0.00 sec. (1.89 ticks)
Tried aggregator 2 times.
Detecting symmetries...
MIP Presolve eliminated 600 rows and 52 columns.
MIP Presolve modified 115 coefficients.
Aggregator did 9 substitutions.
Reduced MIP has 900 rows, 1227 columns, and 2944 nonzeros.
Reduced MIP has 461 binaries, 766 generals, 0 SOSs, and 0 indicators.
Presolve time = 0.01 sec. (4.48 ticks)
Probing time = 0.00 sec. (0.25 ticks)
Clique table members: 1.
MIP emphasis: balance optimality and feasibility.
MIP search method: dynamic search.
Parallel mode: deterministic, using up to 24 threads.
Root relaxation solution time = 0.01 sec. (3.17 ticks)

        Nodes                                         Cuts/
   Node  Left     Objective  IInf  Best Integer    Best Bound    ItCnt     Gap

*     0+    0                           68.0000        0.0000           100.00%
      0     0        0.0000    52       68.0000        0.0000      269  100.00%
      0     0        0.8994   270       68.0000     Cuts: 221      634   98.68%
*     0+    0                           34.0000        0.8994            97.35%
      0     0        2.5750   359       34.0000     Cuts: 102      774   92.43%
      0     0        3.4750   307       34.0000     Cuts: 133      954   89.78%
      0     0        3.7280   372       34.0000     Cuts: 104     1075   89.04%
      0     0        4.3732   333       34.0000      Cuts: 92     1228   87.14%
*     0+    0                           17.0000        4.3732            74.28%
      0     0        cutoff             17.0000       17.0000     1330    0.00%
Elapsed time = 0.21 sec. (102.31 ticks, tree = 0.01 MB, solutions = 3)

Implied bound cuts applied:  27
Flow cuts applied:  3
Mixed integer rounding cuts applied:  36
Zero-half cuts applied:  158
Lift and project cuts applied:  1
Gomory fractional cuts applied:  7

Root node processing (before b&c):
  Real time             =    0.21 sec. (102.43 ticks)
Parallel b&c, 24 threads:
  Real time             =    0.00 sec. (0.00 ticks)
  Sync time (average)   =    0.00 sec.
  Wait time (average)   =    0.00 sec.
                          ------------
Total (root+branch&cut) =    0.21 sec. (102.43 ticks)

Solution status = Optimal
Solution LB = 17
Solution UB = 17
Runtime = 0.222873 seconds
	Command being timed: "/home/min/git_repos/CS598MEBProject/CNT-ILP/build/cnt -s 2 ./output/k6_n40/simC_c1_k6_n40_u2_s3_del04.input-right.cnp"
	User time (seconds): 1.31
	System time (seconds): 0.11
	Percent of CPU this job got: 584%
	Elapsed (wall clock) time (h:mm:ss or m:ss): 0:00.24
	Average shared text size (kbytes): 0
	Average unshared data size (kbytes): 0
	Average stack size (kbytes): 0
	Average total size (kbytes): 0
	Maximum resident set size (kbytes): 101972
	Average resident set size (kbytes): 0
	Major (requiring I/O) page faults: 0
	Minor (reclaiming a frame) page faults: 22720
	Voluntary context switches: 4173
	Involuntary context switches: 98
	Swaps: 0
	File system inputs: 0
	File system outputs: 16
	Socket messages sent: 0
	Socket messages received: 0
	Signals delivered: 0
	Page size (bytes): 4096
	Exit status: 0
